unknown
(model
; cardinality of BoundSet is 2
(declare-sort BoundSet 0)
; rep: @uc_BoundSet_0
; rep: @uc_BoundSet_1
(declare-sort UnboundSet 0)
(define-fun IsExperimentedOn ((BOUND_VARIABLE_391 BoundSet)) Bool true)
(define-fun IsRespected ((BOUND_VARIABLE_391 BoundSet)) Bool false)
(define-fun IsBecomeBattlefield ((BOUND_VARIABLE_391 BoundSet)) Bool false)
(define-fun IsIllegal ((BOUND_VARIABLE_391 BoundSet)) Bool false)
(define-fun IsEnded ((BOUND_VARIABLE_391 BoundSet)) Bool false)
)
sat
(model
; cardinality of BoundSet is 1
(declare-sort BoundSet 0)
; rep: @uc_BoundSet_0
(declare-sort UnboundSet 0)
(define-fun IsExperimentedOn ((BOUND_VARIABLE_423 BoundSet)) Bool true)
(define-fun IsRespected ((BOUND_VARIABLE_423 BoundSet)) Bool false)
(define-fun IsBecomeBattlefield ((BOUND_VARIABLE_423 BoundSet)) Bool false)
(define-fun IsIllegal ((BOUND_VARIABLE_423 BoundSet)) Bool false)
(define-fun IsEnded ((BOUND_VARIABLE_423 BoundSet)) Bool false)
)
